global                                  
   1.00000000000000     
2.85311   0.0   0.0
0.0   2.85311   0.0
0.0   0.0   3.749535
Pd Cu H 
 1  1 2
Direct
0.0000 0.0000 0.0000
0.5000 0.5000 0.5000
0.5000 0.5000 0.0000
0.0000 0.0000 0.5000
